networks/zoo_101_510/zoo_101_510.txt
Number of groups: 49
Flow 9: {1 37} {37 17} {17 16} {16 67} 
Flow 44: {5 6} {6 7} {7 2} {2 1} {1 52} 
Flow 78: {50 101} 
Flow 81: {8 7} {7 15} {15 24} {24 75} 
Flow 91: {16 15} {15 7} {7 8} {8 59} 
Flow 128: {11 23} {23 22} {22 73} 
Flow 130: {25 76} 
Flow 133: {29 28} {28 79} 
Flow 140: {17 37} {37 1} {1 4} {4 3} {3 42} 
Flow 141: {49 50} {50 44} 
Flow 149: {18 10} {10 1} {1 2} {2 7} {7 58} 
Flow 151: {27 24} {24 25} {25 13} {13 64} 
Flow 155: {18 17} {17 14} {14 27} {27 78} 
Flow 175: {15 16} {16 17} 
Flow 182: {21 20} {20 19} {19 15} {15 66} 
Flow 184: {21 12} {12 13} {13 25} {25 24} 
Flow 187: {22 23} {23 11} {11 30} {30 33} 
Flow 194: {7 6} {6 9} {9 60} 
Flow 195: {32 34} {34 1} {1 10} {10 61} 
Flow 196: {31 30} {30 11} {11 62} 
Flow 205: {24 27} {27 26} {26 77} 
Flow 210: {28 31} {31 82} 
Flow 211: {24 32} {32 83} 
Flow 213: {14 35} {35 36} {36 87} 
Flow 214: {30 38} {38 89} 
Flow 228: {26 29} 
Flow 229: {26 27} {27 14} {14 34} {34 33} {33 39} 
Flow 255: {29 24} {24 15} {15 19} {19 20} {20 71} 
Flow 266: {38 46} {46 45} {45 44} {44 95} 
Flow 321: {6 5} {5 56} 
Flow 326: {35 14} {14 17} 
Flow 345: {36 1} {1 34} {34 32} 
Flow 345: {32 24} {24 29} {29 80} 
Flow 398: {39 33} {33 48} {48 99} 
Flow 399: {39 40} {40 49} {49 100} 
Flow 406: {42 3} {3 54} 
Flow 412: {43 3} 
Flow 425: {20 21} {21 72} 
Flow 427: {46 38} {38 30} {30 31} {31 28} 
Flow 427: {28 29} {29 26} 
Flow 436: {46 47} {47 98} 
Flow 445: {47 48} {48 49} {49 40} {40 91} 
Flow 471: {33 34} {34 14} {14 65} 
Flow 483: {40 39} {39 90} 
Flow 487: {48 47} {47 46} {46 97} 
Flow 493: {50 49} {49 48} {48 33} {33 30} {30 81} 
Flow 496: {51 3} {3 4} {4 55} 
Flow 506: {4 1} {1 36} {36 35} {35 86} 
Flow 508: {51 42} {42 93} 
Time taken running everything: 33 seconds
