networks/zoo_101_510/zoo_101_510.sol
<?xml version = "1.0" encoding="UTF-8" standalone="yes"?>
<CPLEXSolution version="1.2">
 <header
   problemName="networks/zoo_101_510/zoo_101_510.lp"
   solutionName="incumbent"
   solutionIndex="-1"
   objectiveValue="49"
   solutionTypeValue="3"
   solutionTypeString="primal"
   solutionStatusValue="101"
   solutionStatusString="integer optimal solution"
   solutionMethodString="mip"
   primalFeasible="1"
   dualFeasible="1"
   MIPNodes="2504"
   MIPIterations="297668"
   writeLevel="3"/>
 <quality
   epInt="1.0000000000000001e-05"
   epRHS="9.9999999999999995e-07"
   maxIntInfeas="0"
   maxPrimalInfeas="1.7763568394002505e-15"
   maxX="4.0000000000000009"
   maxSlack="10"/>
 <variables>
  <variable name="Y(7,14)" index="535" value="1"/>
  <variable name="Y(9,16)" index="711" value="1"/>
  <variable name="Y(47,24)" index="4025" value="1"/>
  <variable name="Y(63,26)" index="5419" value="1"/>
  <variable name="Y(78,50)" index="6747" value="1"/>
  <variable name="Y(79,1)" index="6786" value="1"/>
  <variable name="Y(94,20)" index="8110" value="1"/>
  <variable name="Y(128,22)" index="11070" value="1"/>
  <variable name="Y(130,25)" index="11247" value="1"/>
  <variable name="Y(133,28)" index="11511" value="1"/>
  <variable name="Y(137,36)" index="11867" value="1"/>
  <variable name="Y(140,3)" index="12095" value="1"/>
  <variable name="Y(151,13)" index="13062" value="1"/>
  <variable name="Y(155,27)" index="13424" value="1"/>
  <variable name="Y(159,10)" index="13755" value="1"/>
  <variable name="Y(175,16)" index="15153" value="1"/>
  <variable name="Y(182,15)" index="15761" value="1"/>
  <variable name="Y(184,25)" index="15945" value="1"/>
  <variable name="Y(187,30)" index="16211" value="1"/>
  <variable name="Y(194,9)" index="16799" value="1"/>
  <variable name="Y(195,10)" index="16887" value="1"/>
  <variable name="Y(196,11)" index="16975" value="1"/>
  <variable name="Y(210,31)" index="18213" value="1"/>
  <variable name="Y(211,32)" index="18301" value="1"/>
  <variable name="Y(214,38)" index="18568" value="1"/>
  <variable name="Y(228,30)" index="19778" value="1"/>
  <variable name="Y(229,33)" index="19868" value="1"/>
  <variable name="Y(250,8)" index="21670" value="1"/>
  <variable name="Y(256,21)" index="22205" value="1"/>
  <variable name="Y(266,44)" index="23097" value="1"/>
  <variable name="Y(321,5)" index="27844" value="1"/>
  <variable name="Y(322,7)" index="27933" value="1"/>
  <variable name="Y(325,14)" index="28201" value="1"/>
  <variable name="Y(335,50)" index="29106" value="1"/>
  <variable name="Y(398,48)" index="34585" value="1"/>
  <variable name="Y(399,49)" index="34673" value="1"/>
  <variable name="Y(406,3)" index="35237" value="1"/>
  <variable name="Y(414,43)" index="35972" value="1"/>
  <variable name="Y(427,29)" index="37090" value="1"/>
  <variable name="Y(428,46)" index="37193" value="1"/>
  <variable name="Y(433,40)" index="37623" value="1"/>
  <variable name="Y(436,47)" index="37890" value="1"/>
  <variable name="Y(483,39)" index="41972" value="1"/>
  <variable name="Y(487,46)" index="42326" value="1"/>
  <variable name="Y(491,33)" index="42662" value="1"/>
  <variable name="Y(496,4)" index="43068" value="1"/>
  <variable name="Y(504,29)" index="43789" value="1"/>
  <variable name="Y(506,35)" index="43969" value="1"/>
  <variable name="Y(508,42)" index="44149" value="1"/>
  <variable name="X(1,2,322)" index="44691" value="1"/>
  <variable name="X(1,4,140)" index="45019" value="1"/>
  <variable name="X(1,10,195)" index="45584" value="1"/>
  <variable name="X(1,34,7)" index="45906" value="1"/>
  <variable name="X(1,36,506)" index="46915" value="1"/>
  <variable name="X(1,37,9)" index="46928" value="1"/>
  <variable name="X(1,52,79)" index="47508" value="1"/>
  <variable name="X(2,1,79)" index="48018" value="1"/>
  <variable name="X(2,7,322)" index="48771" value="1"/>
  <variable name="X(3,4,496)" index="49455" value="1"/>
  <variable name="X(3,42,140)" index="49609" value="1"/>
  <variable name="X(3,54,406)" index="50385" value="1"/>
  <variable name="X(4,1,506)" index="50995" value="1"/>
  <variable name="X(4,3,140)" index="51139" value="1"/>
  <variable name="X(4,55,496)" index="52005" value="1"/>
  <variable name="X(5,6,47)" index="52066" value="1"/>
  <variable name="X(5,56,321)" index="52850" value="1"/>
  <variable name="X(6,5,321)" index="53360" value="1"/>
  <variable name="X(6,7,47)" index="53596" value="1"/>
  <variable name="X(6,9,194)" index="54253" value="1"/>
  <variable name="X(7,2,79)" index="54648" value="1"/>
  <variable name="X(7,6,194)" index="55273" value="1"/>
  <variable name="X(7,8,250)" index="55839" value="1"/>
  <variable name="X(7,15,47)" index="56146" value="1"/>
  <variable name="X(7,58,322)" index="56931" value="1"/>
  <variable name="X(8,7,79)" index="57198" value="1"/>
  <variable name="X(8,59,250)" index="57879" value="1"/>
  <variable name="X(9,60,194)" index="58333" value="1"/>
  <variable name="X(10,1,159)" index="58808" value="1"/>
  <variable name="X(10,61,195)" index="59354" value="1"/>
  <variable name="X(11,23,128)" index="59797" value="1"/>
  <variable name="X(11,30,187)" index="60366" value="1"/>
  <variable name="X(11,62,196)" index="60885" value="1"/>
  <variable name="X(12,13,184)" index="61383" value="1"/>
  <variable name="X(13,25,184)" index="61893" value="1"/>
  <variable name="X(13,64,151)" index="62370" value="1"/>
  <variable name="X(14,17,325)" index="63054" value="1"/>
  <variable name="X(14,27,155)" index="63394" value="1"/>
  <variable name="X(14,34,229)" index="63978" value="1"/>
  <variable name="X(14,35,137)" index="64396" value="1"/>
  <variable name="X(14,65,7)" index="64776" value="1"/>
  <variable name="X(15,7,250)" index="65529" value="1"/>
  <variable name="X(15,16,175)" index="65964" value="1"/>
  <variable name="X(15,19,94)" index="66393" value="1"/>
  <variable name="X(15,24,47)" index="66856" value="1"/>
  <variable name="X(15,66,182)" index="67501" value="1"/>
  <variable name="X(16,15,94)" index="67923" value="1"/>
  <variable name="X(16,17,175)" index="68514" value="1"/>
  <variable name="X(16,67,9)" index="68858" value="1"/>
  <variable name="X(17,14,155)" index="69514" value="1"/>
  <variable name="X(17,16,9)" index="69878" value="1"/>
  <variable name="X(17,37,140)" index="70519" value="1"/>
  <variable name="X(18,10,159)" index="71048" value="1"/>
  <variable name="X(18,17,155)" index="71554" value="1"/>
  <variable name="X(19,15,182)" index="72091" value="1"/>
  <variable name="X(19,20,94)" index="72513" value="1"/>
  <variable name="X(20,19,182)" index="73111" value="1"/>
  <variable name="X(20,21,256)" index="73695" value="1"/>
  <variable name="X(20,71,94)" index="74043" value="1"/>
  <variable name="X(21,12,184)" index="74643" value="1"/>
  <variable name="X(21,20,182)" index="75151" value="1"/>
  <variable name="X(21,72,256)" index="75735" value="1"/>
  <variable name="X(22,23,187)" index="76176" value="1"/>
  <variable name="X(22,73,128)" index="76627" value="1"/>
  <variable name="X(23,11,187)" index="77196" value="1"/>
  <variable name="X(23,22,128)" index="77647" value="1"/>
  <variable name="X(24,15,250)" index="78279" value="1"/>
  <variable name="X(24,25,151)" index="78690" value="1"/>
  <variable name="X(24,27,63)" index="79112" value="1"/>
  <variable name="X(24,29,504)" index="80063" value="1"/>
  <variable name="X(24,32,211)" index="80280" value="1"/>
  <variable name="X(24,75,47)" index="80626" value="1"/>
  <variable name="X(25,13,151)" index="81240" value="1"/>
  <variable name="X(25,24,184)" index="81783" value="1"/>
  <variable name="X(25,76,130)" index="82239" value="1"/>
  <variable name="X(26,27,229)" index="82848" value="1"/>
  <variable name="X(26,29,228)" index="83357" value="1"/>
  <variable name="X(26,77,63)" index="83702" value="1"/>
  <variable name="X(27,14,229)" index="84378" value="1"/>
  <variable name="X(27,24,151)" index="84810" value="1"/>
  <variable name="X(27,26,63)" index="85232" value="1"/>
  <variable name="X(27,78,155)" index="85834" value="1"/>
  <variable name="X(28,29,427)" index="86616" value="1"/>
  <variable name="X(28,31,228)" index="86927" value="1"/>
  <variable name="X(28,79,133)" index="87342" value="1"/>
  <variable name="X(29,24,250)" index="87969" value="1"/>
  <variable name="X(29,26,427)" index="88656" value="1"/>
  <variable name="X(29,28,228)" index="88967" value="1"/>
  <variable name="X(29,80,504)" index="89753" value="1"/>
  <variable name="X(30,11,128)" index="89887" value="1"/>
  <variable name="X(30,31,427)" index="90696" value="1"/>
  <variable name="X(30,33,187)" index="90966" value="1"/>
  <variable name="X(30,38,214)" index="91503" value="1"/>
  <variable name="X(30,81,228)" index="92027" value="1"/>
  <variable name="X(31,28,427)" index="92736" value="1"/>
  <variable name="X(31,30,228)" index="93047" value="1"/>
  <variable name="X(31,82,210)" index="93539" value="1"/>
  <variable name="X(32,24,504)" index="94343" value="1"/>
  <variable name="X(32,34,195)" index="94544" value="1"/>
  <variable name="X(32,83,211)" index="95070" value="1"/>
  <variable name="X(33,30,128)" index="95497" value="1"/>
  <variable name="X(33,34,491)" index="96370" value="1"/>
  <variable name="X(33,39,229)" index="96618" value="1"/>
  <variable name="X(33,48,398)" index="97297" value="1"/>
  <variable name="X(34,1,195)" index="97604" value="1"/>
  <variable name="X(34,14,7)" index="97926" value="1"/>
  <variable name="X(34,32,504)" index="98933" value="1"/>
  <variable name="X(34,33,229)" index="99168" value="1"/>
  <variable name="X(35,14,325)" index="99774" value="1"/>
  <variable name="X(35,36,137)" index="100096" value="1"/>
  <variable name="X(35,86,506)" index="100975" value="1"/>
  <variable name="X(36,1,322)" index="101301" value="1"/>
  <variable name="X(36,35,506)" index="101995" value="1"/>
  <variable name="X(36,87,137)" index="102136" value="1"/>
  <variable name="X(37,1,140)" index="102649" value="1"/>
  <variable name="X(37,17,9)" index="103028" value="1"/>
  <variable name="X(38,30,427)" index="103956" value="1"/>
  <variable name="X(38,46,266)" index="104305" value="1"/>
  <variable name="X(38,89,214)" index="104763" value="1"/>
  <variable name="X(39,33,398)" index="105457" value="1"/>
  <variable name="X(39,40,399)" index="105968" value="1"/>
  <variable name="X(39,90,483)" index="106562" value="1"/>
  <variable name="X(40,39,483)" index="107072" value="1"/>
  <variable name="X(40,49,399)" index="107498" value="1"/>
  <variable name="X(40,91,433)" index="108042" value="1"/>
  <variable name="X(42,3,406)" index="108525" value="1"/>
  <variable name="X(42,93,508)" index="109137" value="1"/>
  <variable name="X(43,3,414)" index="109553" value="1"/>
  <variable name="X(44,95,266)" index="109915" value="1"/>
  <variable name="X(45,44,266)" index="110425" value="1"/>
  <variable name="X(46,38,428)" index="111097" value="1"/>
  <variable name="X(46,45,266)" index="111445" value="1"/>
  <variable name="X(46,47,436)" index="112125" value="1"/>
  <variable name="X(46,97,487)" index="112686" value="1"/>
  <variable name="X(47,46,487)" index="113196" value="1"/>
  <variable name="X(47,48,433)" index="113652" value="1"/>
  <variable name="X(47,98,436)" index="114165" value="1"/>
  <variable name="X(48,33,491)" index="114730" value="1"/>
  <variable name="X(48,47,487)" index="115236" value="1"/>
  <variable name="X(48,49,433)" index="115692" value="1"/>
  <variable name="X(48,99,398)" index="116167" value="1"/>
  <variable name="X(49,40,433)" index="116712" value="1"/>
  <variable name="X(49,48,491)" index="117280" value="1"/>
  <variable name="X(49,50,335)" index="117634" value="1"/>
  <variable name="X(49,100,399)" index="118208" value="1"/>
  <variable name="X(50,44,335)" index="118654" value="1"/>
  <variable name="X(50,49,491)" index="119320" value="1"/>
  <variable name="X(50,101,78)" index="119417" value="1"/>
  <variable name="X(51,3,496)" index="120345" value="1"/>
  <variable name="X(51,42,508)" index="120867" value="1"/>
  <variable name="C(7,34)" index="120894" value="1"/>
  <variable name="C(7,14)" index="120895" value="2"/>
  <variable name="C(9,37)" index="120901" value="1"/>
  <variable name="C(9,17)" index="120902" value="2"/>
  <variable name="C(9,16)" index="120903" value="3"/>
  <variable name="C(47,6)" index="121083" value="1"/>
  <variable name="C(47,7)" index="121084" value="2"/>
  <variable name="C(47,15)" index="121085" value="3"/>
  <variable name="C(47,24)" index="121086" value="4"/>
  <variable name="C(63,27)" index="121155" value="1"/>
  <variable name="C(63,26)" index="121156" value="2"/>
  <variable name="C(79,7)" index="121250" value="1"/>
  <variable name="C(79,2)" index="121251" value="1.9999999999999991"/>
  <variable name="C(79,1)" index="121252" value="2.9999999999999991"/>
  <variable name="C(94,15)" index="121325" value="1"/>
  <variable name="C(94,19)" index="121326" value="2"/>
  <variable name="C(94,20)" index="121327" value="3"/>
  <variable name="C(128,30)" index="121477" value="1"/>
  <variable name="C(128,11)" index="121478" value="2"/>
  <variable name="C(128,23)" index="121479" value="3"/>
  <variable name="C(128,22)" index="121480" value="4"/>
  <variable name="C(137,35)" index="121518" value="1"/>
  <variable name="C(137,36)" index="121519" value="2"/>
  <variable name="C(140,37)" index="121532" value="1"/>
  <variable name="C(140,1)" index="121533" value="2"/>
  <variable name="C(140,4)" index="121534" value="3"/>
  <variable name="C(140,3)" index="121535" value="4"/>
  <variable name="C(151,24)" index="121596" value="1"/>
  <variable name="C(151,25)" index="121597" value="1.9999999999999982"/>
  <variable name="C(151,13)" index="121598" value="2.9999999999999982"/>
  <variable name="C(155,17)" index="121615" value="1"/>
  <variable name="C(155,14)" index="121616" value="2"/>
  <variable name="C(155,27)" index="121617" value="3"/>
  <variable name="C(159,10)" index="121635" value="1"/>
  <variable name="C(175,16)" index="121726" value="1"/>
  <variable name="C(182,20)" index="121782" value="1"/>
  <variable name="C(182,19)" index="121783" value="2"/>
  <variable name="C(182,15)" index="121784" value="3"/>
  <variable name="C(184,12)" index="121791" value="1"/>
  <variable name="C(184,13)" index="121792" value="2"/>
  <variable name="C(184,25)" index="121793" value="3"/>
  <variable name="C(187,23)" index="121816" value="1"/>
  <variable name="C(187,11)" index="121817" value="2"/>
  <variable name="C(187,30)" index="121818" value="3"/>
  <variable name="C(194,6)" index="121852" value="1"/>
  <variable name="C(194,9)" index="121853" value="2"/>
  <variable name="C(195,34)" index="121856" value="1"/>
  <variable name="C(195,1)" index="121857" value="2"/>
  <variable name="C(195,10)" index="121858" value="3"/>
  <variable name="C(211,32)" index="121915" value="1"/>
  <variable name="C(214,38)" index="121930" value="1"/>
  <variable name="C(228,29)" index="122008" value="1"/>
  <variable name="C(228,28)" index="122009" value="2"/>
  <variable name="C(228,31)" index="122010" value="3"/>
  <variable name="C(228,30)" index="122011" value="4"/>
  <variable name="C(229,27)" index="122013" value="1"/>
  <variable name="C(229,14)" index="122014" value="2"/>
  <variable name="C(229,34)" index="122015" value="3"/>
  <variable name="C(229,33)" index="122016" value="4"/>
  <variable name="C(250,24)" index="122118" value="1"/>
  <variable name="C(250,15)" index="122119" value="2"/>
  <variable name="C(250,7)" index="122120" value="3"/>
  <variable name="C(250,8)" index="122121" value="4"/>
  <variable name="C(256,21)" index="122147" value="0.99999999999999978"/>
  <variable name="C(266,46)" index="122196" value="1"/>
  <variable name="C(266,45)" index="122197" value="2"/>
  <variable name="C(266,44)" index="122198" value="3"/>
  <variable name="C(321,5)" index="122450" value="0.99999999999999989"/>
  <variable name="C(322,1)" index="122453" value="1"/>
  <variable name="C(322,2)" index="122454" value="1.9999999999999987"/>
  <variable name="C(322,7)" index="122455" value="2.9999999999999987"/>
  <variable name="C(325,14)" index="122469" value="1"/>
  <variable name="C(335,50)" index="122525" value="1.0000000000000002"/>
  <variable name="C(398,33)" index="122865" value="1"/>
  <variable name="C(398,48)" index="122866" value="2"/>
  <variable name="C(399,40)" index="122868" value="1"/>
  <variable name="C(399,49)" index="122869" value="2"/>
  <variable name="C(406,3)" index="122904" value="1"/>
  <variable name="C(427,30)" index="123062" value="1.0000000000000009"/>
  <variable name="C(427,31)" index="123063" value="2.0000000000000009"/>
  <variable name="C(427,28)" index="123064" value="3.0000000000000009"/>
  <variable name="C(427,29)" index="123065" value="4.0000000000000009"/>
  <variable name="C(433,48)" index="123099" value="1"/>
  <variable name="C(433,49)" index="123100" value="1.9999999999999993"/>
  <variable name="C(433,40)" index="123101" value="2.9999999999999991"/>
  <variable name="C(436,47)" index="123115" value="1"/>
  <variable name="C(483,39)" index="123393" value="1"/>
  <variable name="C(487,47)" index="123409" value="1"/>
  <variable name="C(487,46)" index="123410" value="2"/>
  <variable name="C(491,49)" index="123423" value="1"/>
  <variable name="C(491,48)" index="123424" value="2"/>
  <variable name="C(491,33)" index="123425" value="3"/>
  <variable name="C(496,3)" index="123449" value="1"/>
  <variable name="C(496,4)" index="123450" value="2"/>
  <variable name="C(504,32)" index="123508" value="1"/>
  <variable name="C(504,24)" index="123509" value="2"/>
  <variable name="C(504,29)" index="123510" value="3"/>
  <variable name="C(506,1)" index="123521" value="1"/>
  <variable name="C(506,36)" index="123522" value="2"/>
  <variable name="C(506,35)" index="123523" value="3"/>
  <variable name="C(508,42)" index="123533" value="1"/>
 </variables>
</CPLEXSolution>
